1942
71 47 16 23 80 50 19 43 17 22 86 30 65 54 21 92 31 44 73 27 13 74 1 85 95 38 9 91 10 93 4 69 78 26 3 79 68 83 89 2 56 11 28 82 94 67 63 42 39 99 36 40 14 81 46 8 48 55 49 29 6 7 98 87 72 61 15 75 41 37 59 25 84 52 90 60 12 97 45 62 96 34 57 58 64 77 33 76 51 20 53 70 66 18 24 5 35 32 88 
